EjemplosPL/ficheros/pack.lp
Minimize

y_0 + y_1 + y_2 + y_3 + y_4 + y_5 + y_6 + y_7 + y_8 + y_9 + y_10 + y_11 + y_12 + y_13 + y_14 + y_15 + y_16 + y_17


Subject To

a0: 11 x_0_0 + 10 x_1_0 + 10 x_2_0 + 9 x_3_0 + 7 x_4_0 + 6 x_5_0 + 5 x_6_0 + 5 x_7_0 + 4 x_8_0 + 3 x_9_0 + 3 x_10_0 + 2 x_11_0 + 2 x_12_0 + 2 x_13_0 + 2 x_14_0 + 2 x_15_0 + 2 x_16_0 + 1 x_17_0 - 12 y_0 <= 0
a1: 11 x_0_1 + 10 x_1_1 + 10 x_2_1 + 9 x_3_1 + 7 x_4_1 + 6 x_5_1 + 5 x_6_1 + 5 x_7_1 + 4 x_8_1 + 3 x_9_1 + 3 x_10_1 + 2 x_11_1 + 2 x_12_1 + 2 x_13_1 + 2 x_14_1 + 2 x_15_1 + 2 x_16_1 + 1 x_17_1 - 12 y_1 <= 0
a2: 11 x_0_2 + 10 x_1_2 + 10 x_2_2 + 9 x_3_2 + 7 x_4_2 + 6 x_5_2 + 5 x_6_2 + 5 x_7_2 + 4 x_8_2 + 3 x_9_2 + 3 x_10_2 + 2 x_11_2 + 2 x_12_2 + 2 x_13_2 + 2 x_14_2 + 2 x_15_2 + 2 x_16_2 + 1 x_17_2 - 12 y_2 <= 0
a3: 11 x_0_3 + 10 x_1_3 + 10 x_2_3 + 9 x_3_3 + 7 x_4_3 + 6 x_5_3 + 5 x_6_3 + 5 x_7_3 + 4 x_8_3 + 3 x_9_3 + 3 x_10_3 + 2 x_11_3 + 2 x_12_3 + 2 x_13_3 + 2 x_14_3 + 2 x_15_3 + 2 x_16_3 + 1 x_17_3 - 12 y_3 <= 0
a4: 11 x_0_4 + 10 x_1_4 + 10 x_2_4 + 9 x_3_4 + 7 x_4_4 + 6 x_5_4 + 5 x_6_4 + 5 x_7_4 + 4 x_8_4 + 3 x_9_4 + 3 x_10_4 + 2 x_11_4 + 2 x_12_4 + 2 x_13_4 + 2 x_14_4 + 2 x_15_4 + 2 x_16_4 + 1 x_17_4 - 12 y_4 <= 0
a5: 11 x_0_5 + 10 x_1_5 + 10 x_2_5 + 9 x_3_5 + 7 x_4_5 + 6 x_5_5 + 5 x_6_5 + 5 x_7_5 + 4 x_8_5 + 3 x_9_5 + 3 x_10_5 + 2 x_11_5 + 2 x_12_5 + 2 x_13_5 + 2 x_14_5 + 2 x_15_5 + 2 x_16_5 + 1 x_17_5 - 12 y_5 <= 0
a6: 11 x_0_6 + 10 x_1_6 + 10 x_2_6 + 9 x_3_6 + 7 x_4_6 + 6 x_5_6 + 5 x_6_6 + 5 x_7_6 + 4 x_8_6 + 3 x_9_6 + 3 x_10_6 + 2 x_11_6 + 2 x_12_6 + 2 x_13_6 + 2 x_14_6 + 2 x_15_6 + 2 x_16_6 + 1 x_17_6 - 12 y_6 <= 0
a7: 11 x_0_7 + 10 x_1_7 + 10 x_2_7 + 9 x_3_7 + 7 x_4_7 + 6 x_5_7 + 5 x_6_7 + 5 x_7_7 + 4 x_8_7 + 3 x_9_7 + 3 x_10_7 + 2 x_11_7 + 2 x_12_7 + 2 x_13_7 + 2 x_14_7 + 2 x_15_7 + 2 x_16_7 + 1 x_17_7 - 12 y_7 <= 0
a8: 11 x_0_8 + 10 x_1_8 + 10 x_2_8 + 9 x_3_8 + 7 x_4_8 + 6 x_5_8 + 5 x_6_8 + 5 x_7_8 + 4 x_8_8 + 3 x_9_8 + 3 x_10_8 + 2 x_11_8 + 2 x_12_8 + 2 x_13_8 + 2 x_14_8 + 2 x_15_8 + 2 x_16_8 + 1 x_17_8 - 12 y_8 <= 0
a9: 11 x_0_9 + 10 x_1_9 + 10 x_2_9 + 9 x_3_9 + 7 x_4_9 + 6 x_5_9 + 5 x_6_9 + 5 x_7_9 + 4 x_8_9 + 3 x_9_9 + 3 x_10_9 + 2 x_11_9 + 2 x_12_9 + 2 x_13_9 + 2 x_14_9 + 2 x_15_9 + 2 x_16_9 + 1 x_17_9 - 12 y_9 <= 0
a10: 11 x_0_10 + 10 x_1_10 + 10 x_2_10 + 9 x_3_10 + 7 x_4_10 + 6 x_5_10 + 5 x_6_10 + 5 x_7_10 + 4 x_8_10 + 3 x_9_10 + 3 x_10_10 + 2 x_11_10 + 2 x_12_10 + 2 x_13_10 + 2 x_14_10 + 2 x_15_10 + 2 x_16_10 + 1 x_17_10 - 12 y_10 <= 0
a11: 11 x_0_11 + 10 x_1_11 + 10 x_2_11 + 9 x_3_11 + 7 x_4_11 + 6 x_5_11 + 5 x_6_11 + 5 x_7_11 + 4 x_8_11 + 3 x_9_11 + 3 x_10_11 + 2 x_11_11 + 2 x_12_11 + 2 x_13_11 + 2 x_14_11 + 2 x_15_11 + 2 x_16_11 + 1 x_17_11 - 12 y_11 <= 0
a12: 11 x_0_12 + 10 x_1_12 + 10 x_2_12 + 9 x_3_12 + 7 x_4_12 + 6 x_5_12 + 5 x_6_12 + 5 x_7_12 + 4 x_8_12 + 3 x_9_12 + 3 x_10_12 + 2 x_11_12 + 2 x_12_12 + 2 x_13_12 + 2 x_14_12 + 2 x_15_12 + 2 x_16_12 + 1 x_17_12 - 12 y_12 <= 0
a13: 11 x_0_13 + 10 x_1_13 + 10 x_2_13 + 9 x_3_13 + 7 x_4_13 + 6 x_5_13 + 5 x_6_13 + 5 x_7_13 + 4 x_8_13 + 3 x_9_13 + 3 x_10_13 + 2 x_11_13 + 2 x_12_13 + 2 x_13_13 + 2 x_14_13 + 2 x_15_13 + 2 x_16_13 + 1 x_17_13 - 12 y_13 <= 0
a14: 11 x_0_14 + 10 x_1_14 + 10 x_2_14 + 9 x_3_14 + 7 x_4_14 + 6 x_5_14 + 5 x_6_14 + 5 x_7_14 + 4 x_8_14 + 3 x_9_14 + 3 x_10_14 + 2 x_11_14 + 2 x_12_14 + 2 x_13_14 + 2 x_14_14 + 2 x_15_14 + 2 x_16_14 + 1 x_17_14 - 12 y_14 <= 0
a15: 11 x_0_15 + 10 x_1_15 + 10 x_2_15 + 9 x_3_15 + 7 x_4_15 + 6 x_5_15 + 5 x_6_15 + 5 x_7_15 + 4 x_8_15 + 3 x_9_15 + 3 x_10_15 + 2 x_11_15 + 2 x_12_15 + 2 x_13_15 + 2 x_14_15 + 2 x_15_15 + 2 x_16_15 + 1 x_17_15 - 12 y_15 <= 0
a16: 11 x_0_16 + 10 x_1_16 + 10 x_2_16 + 9 x_3_16 + 7 x_4_16 + 6 x_5_16 + 5 x_6_16 + 5 x_7_16 + 4 x_8_16 + 3 x_9_16 + 3 x_10_16 + 2 x_11_16 + 2 x_12_16 + 2 x_13_16 + 2 x_14_16 + 2 x_15_16 + 2 x_16_16 + 1 x_17_16 - 12 y_16 <= 0
a17: 11 x_0_17 + 10 x_1_17 + 10 x_2_17 + 9 x_3_17 + 7 x_4_17 + 6 x_5_17 + 5 x_6_17 + 5 x_7_17 + 4 x_8_17 + 3 x_9_17 + 3 x_10_17 + 2 x_11_17 + 2 x_12_17 + 2 x_13_17 + 2 x_14_17 + 2 x_15_17 + 2 x_16_17 + 1 x_17_17 - 12 y_17 <= 0
b0: x_0_0 + x_0_1 + x_0_2 + x_0_3 + x_0_4 + x_0_5 + x_0_6 + x_0_7 + x_0_8 + x_0_9 + x_0_10 + x_0_11 + x_0_12 + x_0_13 + x_0_14 + x_0_15 + x_0_16 + x_0_17 = 1
b1: x_1_0 + x_1_1 + x_1_2 + x_1_3 + x_1_4 + x_1_5 + x_1_6 + x_1_7 + x_1_8 + x_1_9 + x_1_10 + x_1_11 + x_1_12 + x_1_13 + x_1_14 + x_1_15 + x_1_16 + x_1_17 = 1
b2: x_2_0 + x_2_1 + x_2_2 + x_2_3 + x_2_4 + x_2_5 + x_2_6 + x_2_7 + x_2_8 + x_2_9 + x_2_10 + x_2_11 + x_2_12 + x_2_13 + x_2_14 + x_2_15 + x_2_16 + x_2_17 = 1
b3: x_3_0 + x_3_1 + x_3_2 + x_3_3 + x_3_4 + x_3_5 + x_3_6 + x_3_7 + x_3_8 + x_3_9 + x_3_10 + x_3_11 + x_3_12 + x_3_13 + x_3_14 + x_3_15 + x_3_16 + x_3_17 = 1
b4: x_4_0 + x_4_1 + x_4_2 + x_4_3 + x_4_4 + x_4_5 + x_4_6 + x_4_7 + x_4_8 + x_4_9 + x_4_10 + x_4_11 + x_4_12 + x_4_13 + x_4_14 + x_4_15 + x_4_16 + x_4_17 = 1
b5: x_5_0 + x_5_1 + x_5_2 + x_5_3 + x_5_4 + x_5_5 + x_5_6 + x_5_7 + x_5_8 + x_5_9 + x_5_10 + x_5_11 + x_5_12 + x_5_13 + x_5_14 + x_5_15 + x_5_16 + x_5_17 = 1
b6: x_6_0 + x_6_1 + x_6_2 + x_6_3 + x_6_4 + x_6_5 + x_6_6 + x_6_7 + x_6_8 + x_6_9 + x_6_10 + x_6_11 + x_6_12 + x_6_13 + x_6_14 + x_6_15 + x_6_16 + x_6_17 = 1
b7: x_7_0 + x_7_1 + x_7_2 + x_7_3 + x_7_4 + x_7_5 + x_7_6 + x_7_7 + x_7_8 + x_7_9 + x_7_10 + x_7_11 + x_7_12 + x_7_13 + x_7_14 + x_7_15 + x_7_16 + x_7_17 = 1
b8: x_8_0 + x_8_1 + x_8_2 + x_8_3 + x_8_4 + x_8_5 + x_8_6 + x_8_7 + x_8_8 + x_8_9 + x_8_10 + x_8_11 + x_8_12 + x_8_13 + x_8_14 + x_8_15 + x_8_16 + x_8_17 = 1
b9: x_9_0 + x_9_1 + x_9_2 + x_9_3 + x_9_4 + x_9_5 + x_9_6 + x_9_7 + x_9_8 + x_9_9 + x_9_10 + x_9_11 + x_9_12 + x_9_13 + x_9_14 + x_9_15 + x_9_16 + x_9_17 = 1
b10: x_10_0 + x_10_1 + x_10_2 + x_10_3 + x_10_4 + x_10_5 + x_10_6 + x_10_7 + x_10_8 + x_10_9 + x_10_10 + x_10_11 + x_10_12 + x_10_13 + x_10_14 + x_10_15 + x_10_16 + x_10_17 = 1
b11: x_11_0 + x_11_1 + x_11_2 + x_11_3 + x_11_4 + x_11_5 + x_11_6 + x_11_7 + x_11_8 + x_11_9 + x_11_10 + x_11_11 + x_11_12 + x_11_13 + x_11_14 + x_11_15 + x_11_16 + x_11_17 = 1
b12: x_12_0 + x_12_1 + x_12_2 + x_12_3 + x_12_4 + x_12_5 + x_12_6 + x_12_7 + x_12_8 + x_12_9 + x_12_10 + x_12_11 + x_12_12 + x_12_13 + x_12_14 + x_12_15 + x_12_16 + x_12_17 = 1
b13: x_13_0 + x_13_1 + x_13_2 + x_13_3 + x_13_4 + x_13_5 + x_13_6 + x_13_7 + x_13_8 + x_13_9 + x_13_10 + x_13_11 + x_13_12 + x_13_13 + x_13_14 + x_13_15 + x_13_16 + x_13_17 = 1
b14: x_14_0 + x_14_1 + x_14_2 + x_14_3 + x_14_4 + x_14_5 + x_14_6 + x_14_7 + x_14_8 + x_14_9 + x_14_10 + x_14_11 + x_14_12 + x_14_13 + x_14_14 + x_14_15 + x_14_16 + x_14_17 = 1
b15: x_15_0 + x_15_1 + x_15_2 + x_15_3 + x_15_4 + x_15_5 + x_15_6 + x_15_7 + x_15_8 + x_15_9 + x_15_10 + x_15_11 + x_15_12 + x_15_13 + x_15_14 + x_15_15 + x_15_16 + x_15_17 = 1
b16: x_16_0 + x_16_1 + x_16_2 + x_16_3 + x_16_4 + x_16_5 + x_16_6 + x_16_7 + x_16_8 + x_16_9 + x_16_10 + x_16_11 + x_16_12 + x_16_13 + x_16_14 + x_16_15 + x_16_16 + x_16_17 = 1
b17: x_17_0 + x_17_1 + x_17_2 + x_17_3 + x_17_4 + x_17_5 + x_17_6 + x_17_7 + x_17_8 + x_17_9 + x_17_10 + x_17_11 + x_17_12 + x_17_13 + x_17_14 + x_17_15 + x_17_16 + x_17_17 = 1




Binary

x_0_0 x_0_1 x_0_2 x_0_3 x_0_4 x_0_5 x_0_6 x_0_7 x_0_8 x_0_9 x_0_10 x_0_11 x_0_12 x_0_13 x_0_14 x_0_15 x_0_16 x_0_17 x_1_0 x_1_1 x_1_2 x_1_3 x_1_4 x_1_5 x_1_6 x_1_7 x_1_8 x_1_9 x_1_10 x_1_11 x_1_12 x_1_13 x_1_14 x_1_15 x_1_16 x_1_17 x_2_0 x_2_1 x_2_2 x_2_3 x_2_4 x_2_5 x_2_6 x_2_7 x_2_8 x_2_9 x_2_10 x_2_11 x_2_12 x_2_13 x_2_14 x_2_15 x_2_16 x_2_17 x_3_0 x_3_1 x_3_2 x_3_3 x_3_4 x_3_5 x_3_6 x_3_7 x_3_8 x_3_9 x_3_10 x_3_11 x_3_12 x_3_13 x_3_14 x_3_15 x_3_16 x_3_17 x_4_0 x_4_1 x_4_2 x_4_3 x_4_4 x_4_5 x_4_6 x_4_7 x_4_8 x_4_9 x_4_10 x_4_11 x_4_12 x_4_13 x_4_14 x_4_15 x_4_16 x_4_17 x_5_0 x_5_1 x_5_2 x_5_3 x_5_4 x_5_5 x_5_6 x_5_7 x_5_8 x_5_9 x_5_10 x_5_11 x_5_12 x_5_13 x_5_14 x_5_15 x_5_16 x_5_17 x_6_0 x_6_1 x_6_2 x_6_3 x_6_4 x_6_5 x_6_6 x_6_7 x_6_8 x_6_9 x_6_10 x_6_11 x_6_12 x_6_13 x_6_14 x_6_15 x_6_16 x_6_17 x_7_0 x_7_1 x_7_2 x_7_3 x_7_4 x_7_5 x_7_6 x_7_7 x_7_8 x_7_9 x_7_10 x_7_11 x_7_12 x_7_13 x_7_14 x_7_15 x_7_16 x_7_17 x_8_0 x_8_1 x_8_2 x_8_3 x_8_4 x_8_5 x_8_6 x_8_7 x_8_8 x_8_9 x_8_10 x_8_11 x_8_12 x_8_13 x_8_14 x_8_15 x_8_16 x_8_17 x_9_0 x_9_1 x_9_2 x_9_3 x_9_4 x_9_5 x_9_6 x_9_7 x_9_8 x_9_9 x_9_10 x_9_11 x_9_12 x_9_13 x_9_14 x_9_15 x_9_16 x_9_17 x_10_0 x_10_1 x_10_2 x_10_3 x_10_4 x_10_5 x_10_6 x_10_7 x_10_8 x_10_9 x_10_10 x_10_11 x_10_12 x_10_13 x_10_14 x_10_15 x_10_16 x_10_17 x_11_0 x_11_1 x_11_2 x_11_3 x_11_4 x_11_5 x_11_6 x_11_7 x_11_8 x_11_9 x_11_10 x_11_11 x_11_12 x_11_13 x_11_14 x_11_15 x_11_16 x_11_17 x_12_0 x_12_1 x_12_2 x_12_3 x_12_4 x_12_5 x_12_6 x_12_7 x_12_8 x_12_9 x_12_10 x_12_11 x_12_12 x_12_13 x_12_14 x_12_15 x_12_16 x_12_17 x_13_0 x_13_1 x_13_2 x_13_3 x_13_4 x_13_5 x_13_6 x_13_7 x_13_8 x_13_9 x_13_10 x_13_11 x_13_12 x_13_13 x_13_14 x_13_15 x_13_16 x_13_17 x_14_0 x_14_1 x_14_2 x_14_3 x_14_4 x_14_5 x_14_6 x_14_7 x_14_8 x_14_9 x_14_10 x_14_11 x_14_12 x_14_13 x_14_14 x_14_15 x_14_16 x_14_17 x_15_0 x_15_1 x_15_2 x_15_3 x_15_4 x_15_5 x_15_6 x_15_7 x_15_8 x_15_9 x_15_10 x_15_11 x_15_12 x_15_13 x_15_14 x_15_15 x_15_16 x_15_17 x_16_0 x_16_1 x_16_2 x_16_3 x_16_4 x_16_5 x_16_6 x_16_7 x_16_8 x_16_9 x_16_10 x_16_11 x_16_12 x_16_13 x_16_14 x_16_15 x_16_16 x_16_17 x_17_0 x_17_1 x_17_2 x_17_3 x_17_4 x_17_5 x_17_6 x_17_7 x_17_8 x_17_9 x_17_10 x_17_11 x_17_12 x_17_13 x_17_14 x_17_15 x_17_16 x_17_17 y_0 y_1 y_2 y_3 y_4 y_5 y_6 y_7 y_8 y_9 y_10 y_11 y_12 y_13 y_14 y_15 y_16 y_17

 


End
