EjemplosAlgoritmos/ficheros/pack/pack.txt
2
1
10
3
2
9
5
2
11
4
2
10
3
2
7
6
2
5